\ENCODING=ISO-8859-1
\Problem name: SUFL_5_5_0

Minimize
 obj: 30 x1#0 + 30 x2#1 + 30 x3#2 + 30 x4#3 + 30 x5#4 + _eta#5
Subject To
 c_g_1:    x1#0 + x2#1 + x3#2 + x4#3 + x5#4 >= 1
 cut_0000: 26.71 x2#1 + 19.71 x4#3 + 2.29 x5#4 + _eta#5 >= 121.89
 cut_0001: 59.14 x1#0 + 26.71 x2#1 + 74.94 x3#2 + 19.71 x4#3 + 73.42 x5#4
           + _eta#5 >= 232.08
 cut_0002: 47.9999999999999 x1#0 + 44.23 x2#1 + 18.58 x3#2 + 19.71 x4#3
           + 12.29 x5#4 + _eta#5 >= 188.47
Bounds
 0 <= x1#0 <= 1
 0 <= x2#1 <= 1
 0 <= x3#2 <= 1
 0 <= x4#3 <= 1
 0 <= x5#4 <= 1
Binaries
 x1#0  x2#1  x3#2  x4#3  x5#4 
End
